10J3M/DAT/10J3MULR-18.dat
10 3
8.1598 46.1431
36.7104 40.5965
24.0316 32.7925
6.4707 22.0218
5.2797 4.5592
16.4296 5.3003
26.7245 38.2479
1.2849 22.4016
14.2631 24.2803
13.4687 44.6314
93.6582