10J3M/SOL/10J3MULR-18.sol
solution status: optimal solution found
objective value:                              117.813
x#1#2                                               1 	(obj:0)
x#2#1                                               1 	(obj:0)
x#3#2                               0.571987937433356 	(obj:0)
x#3#3                               0.428012062566644 	(obj:0)
x#4#2                                               1 	(obj:0)
x#5#1                                               1 	(obj:0)
x#6#1                               0.770761242762818 	(obj:0)
x#6#3                               0.229238757237182 	(obj:0)
x#7#3                                               1 	(obj:0)
x#8#1                               0.396519275657746 	(obj:0)
x#8#2                              0.0122486078820956 	(obj:0)
x#8#3                               0.591232116460158 	(obj:0)
x#9#2                                               1 	(obj:0)
x#10#3                                              1 	(obj:0)
z                                             117.813 	(obj:1)
